benchmarks/VRPTW/TSPTW/solution/n40w100.004.txt.solution
1 3 4 19 17 12 25 29 18 11 7 27 20 21 28 40 2 30 16 38 23 6 22 8 34 24 39 33 35 14 15 31 13 10 41 9 37 26 36 32 5 
357
